c "97133.clq"
p edge 100 384
e 1 5
e 1 6
e 1 7
e 1 10
e 1 12
e 1 16
e 1 25
e 1 39
e 1 43
e 1 45
e 1 47
e 1 53
e 1 55
e 1 58
e 1 67
e 1 73
e 1 85
e 1 87
e 1 94
e 1 100
e 2 5
e 2 6
e 2 7
e 2 8
e 2 9
e 2 13
e 2 15
e 2 19
e 2 21
e 2 23
e 2 29
e 2 62
e 2 65
e 2 66
e 2 70
e 2 73
e 2 77
e 2 79
e 3 5
e 3 20
e 3 22
e 3 28
e 3 40
e 3 84
e 4 5
e 4 6
e 4 7
e 4 8
e 4 13
e 4 14
e 4 19
e 4 25
e 4 29
e 4 32
e 4 37
e 4 41
e 4 42
e 4 48
e 4 67
e 4 68
e 4 85
e 4 86
e 4 88
e 4 89
e 4 90
e 4 93
e 4 100
e 5 6
e 5 7
e 5 8
e 5 9
e 5 11
e 5 14
e 5 16
e 5 20
e 5 21
e 5 22
e 5 24
e 5 25
e 5 29
e 5 30
e 5 32
e 5 39
e 5 44
e 5 45
e 5 59
e 5 63
e 5 66
e 5 75
e 5 86
e 5 96
e 5 98
e 6 10
e 6 11
e 6 12
e 6 19
e 6 23
e 6 26
e 6 27
e 6 30
e 6 31
e 6 34
e 6 43
e 6 48
e 6 49
e 6 60
e 6 71
e 6 76
e 6 89
e 6 96
e 6 98
e 7 8
e 7 9
e 7 10
e 7 11
e 7 13
e 7 17
e 7 18
e 7 20
e 7 22
e 7 28
e 7 35
e 7 38
e 7 39
e 7 41
e 7 44
e 7 47
e 7 66
e 7 69
e 7 79
e 7 80
e 7 81
e 7 83
e 7 86
e 7 90
e 7 97
e 7 100
e 8 9
e 8 10
e 8 12
e 8 13
e 8 17
e 8 23
e 8 31
e 8 32
e 8 35
e 8 36
e 8 44
e 8 49
e 8 51
e 8 55
e 8 57
e 8 60
e 8 61
e 8 74
e 8 76
e 9 11
e 9 12
e 9 15
e 9 18
e 9 26
e 9 31
e 9 40
e 9 78
e 10 50
e 10 68
e 11 14
e 11 17
e 11 18
e 11 19
e 11 27
e 11 38
e 11 41
e 11 44
e 11 51
e 11 57
e 11 60
e 11 67
e 11 72
e 11 94
e 11 97
e 12 14
e 12 15
e 12 18
e 12 36
e 12 49
e 12 54
e 12 92
e 12 99
e 13 16
e 13 24
e 13 45
e 14 15
e 14 16
e 14 17
e 14 29
e 14 38
e 14 42
e 14 55
e 14 58
e 14 77
e 14 81
e 14 88
e 15 22
e 15 27
e 15 28
e 15 30
e 15 31
e 15 35
e 15 36
e 15 46
e 15 50
e 15 51
e 15 52
e 15 58
e 15 62
e 15 64
e 15 71
e 15 74
e 15 76
e 15 79
e 16 21
e 16 34
e 16 43
e 16 61
e 17 23
e 17 33
e 17 39
e 17 68
e 17 89
e 18 28
e 18 34
e 18 57
e 18 67
e 19 20
e 19 54
e 19 91
e 20 21
e 20 24
e 20 25
e 20 34
e 20 38
e 20 47
e 20 56
e 20 59
e 20 62
e 20 66
e 20 90
e 21 33
e 21 41
e 21 49
e 21 64
e 21 90
e 21 98
e 22 26
e 22 27
e 22 33
e 22 36
e 22 53
e 22 58
e 22 63
e 22 75
e 23 24
e 23 37
e 23 47
e 23 56
e 23 62
e 23 69
e 23 70
e 23 72
e 23 83
e 23 86
e 23 89
e 23 92
e 24 75
e 25 26
e 25 35
e 25 45
e 25 74
e 26 42
e 26 53
e 26 71
e 26 81
e 27 30
e 27 52
e 27 77
e 28 83
e 28 84
e 28 92
e 29 48
e 31 32
e 31 37
e 31 42
e 32 33
e 33 48
e 33 65
e 34 37
e 34 57
e 34 83
e 34 87
e 35 40
e 35 43
e 35 98
e 36 60
e 37 46
e 37 56
e 37 59
e 37 70
e 37 93
e 39 40
e 39 52
e 39 74
e 40 46
e 40 69
e 41 65
e 41 99
e 42 46
e 42 50
e 42 53
e 42 54
e 42 59
e 42 61
e 42 78
e 43 96
e 45 85
e 46 61
e 46 77
e 46 80
e 46 88
e 46 94
e 46 95
e 46 97
e 47 80
e 47 100
e 48 51
e 48 95
e 48 97
e 49 50
e 49 63
e 49 79
e 50 70
e 50 95
e 51 52
e 51 69
e 51 84
e 52 55
e 53 54
e 53 64
e 53 93
e 53 96
e 54 56
e 54 75
e 54 87
e 56 80
e 57 64
e 57 73
e 58 72
e 58 91
e 59 85
e 60 63
e 60 65
e 60 68
e 60 95
e 63 82
e 64 72
e 64 76
e 64 78
e 64 81
e 64 82
e 66 71
e 69 92
e 70 73
e 70 88
e 71 91
e 72 82
e 73 78
e 73 82
e 73 84
e 78 87
e 80 99
e 82 91
e 91 93
e 92 99
e 93 94
